c FILE /home/rafael/Documents/HappySet/MIHS/inputs/happygen/output/graph_scale_free_k20_p0.4_v100_20241127_083930.txt
c SOURCE This is a scale-free graph formed for the happy graph colouring problem.
c DESCRIPTION It was generated using the problem generator of Rhyd Lewis
c
c GRAPH STATS
c Seed                             = -157924741
c Number of Nodes                  = 100
c Number of colours k              = 20
c Number of pre-assignments        = 40
c Number of links per new node     = 5
c Density                          = 0.0979798
c 
c The degrees of nodes 1 to 100, respectively, are as follows 
c [35, 31, 30, 29, 29, 23, 22, 21, 20, 19, 19, 18, 18, 17, 16, 15, 14, 14, 13, 13, 12, 12, 12, 12, 11, 11, 
c  11, 10, 10, 10, 10, 9, 9, 9, 9, 9, 9, 9, 8, 8, 8, 8, 8, 8, 8, 7, 7, 7, 7, 7, 7, 
c  7, 7, 7, 7, 6, 6, 6, 6, 6, 6, 6, 6, 6, 6, 6, 6, 6, 6, 6, 6, 6, 6, 6, 5, 5, 
c  5, 5, 5, 5, 5, 5, 5, 5, 5, 5, 5, 5, 5, 5, 5, 5, 5, 5, 5, 5, 5, 5, 5, 5] 
c  
p edge 100 485 20
e 1 2
e 1 3
e 1 4
e 1 5
e 1 7
e 1 8
e 1 9
e 1 10
e 1 12
e 1 13
e 1 14
e 1 16
e 1 17
e 1 18
e 1 21
e 1 23
e 1 24
e 1 25
e 1 26
e 1 30
e 1 39
e 1 42
e 1 44
e 1 46
e 1 51
e 1 57
e 1 64
e 1 79
e 1 80
e 1 84
e 1 89
e 1 90
e 1 91
e 1 93
e 1 96
e 2 3
e 2 4
e 2 5
e 2 9
e 2 12
e 2 13
e 2 16
e 2 21
e 2 22
e 2 28
e 2 30
e 2 32
e 2 35
e 2 36
e 2 37
e 2 41
e 2 45
e 2 48
e 2 51
e 2 53
e 2 62
e 2 63
e 2 66
e 2 68
e 2 72
e 2 77
e 2 80
e 2 81
e 2 89
e 2 98
e 3 4
e 3 5
e 3 6
e 3 8
e 3 9
e 3 10
e 3 11
e 3 12
e 3 14
e 3 15
e 3 16
e 3 17
e 3 19
e 3 25
e 3 28
e 3 29
e 3 31
e 3 36
e 3 41
e 3 42
e 3 48
e 3 50
e 3 55
e 3 57
e 3 58
e 3 59
e 3 73
e 3 88
e 4 5
e 4 6
e 4 7
e 4 9
e 4 10
e 4 12
e 4 15
e 4 18
e 4 19
e 4 20
e 4 21
e 4 25
e 4 26
e 4 27
e 4 28
e 4 32
e 4 35
e 4 37
e 4 47
e 4 49
e 4 55
e 4 57
e 4 75
e 4 78
e 4 96
e 4 99
e 5 6
e 5 7
e 5 8
e 5 10
e 5 12
e 5 14
e 5 17
e 5 21
e 5 26
e 5 33
e 5 36
e 5 40
e 5 41
e 5 45
e 5 48
e 5 50
e 5 61
e 5 63
e 5 66
e 5 70
e 5 74
e 5 77
e 5 85
e 5 86
e 5 98
e 6 8
e 6 9
e 6 12
e 6 14
e 6 20
e 6 22
e 6 25
e 6 32
e 6 33
e 6 35
e 6 36
e 6 39
e 6 48
e 6 49
e 6 53
e 6 56
e 6 72
e 6 82
e 6 92
e 6 94
e 7 9
e 7 11
e 7 12
e 7 15
e 7 18
e 7 19
e 7 23
e 7 32
e 7 39
e 7 47
e 7 56
e 7 59
e 7 60
e 7 72
e 7 73
e 7 74
e 7 75
e 7 82
e 7 86
e 8 11
e 8 13
e 8 23
e 8 25
e 8 38
e 8 43
e 8 46
e 8 49
e 8 51
e 8 55
e 8 56
e 8 59
e 8 60
e 8 67
e 8 78
e 8 83
e 8 90
e 9 12
e 9 15
e 9 21
e 9 26
e 9 28
e 9 29
e 9 33
e 9 52
e 9 60
e 9 63
e 9 75
e 9 76
e 9 80
e 9 100
e 10 12
e 10 17
e 10 19
e 10 20
e 10 29
e 10 34
e 10 39
e 10 40
e 10 43
e 10 54
e 10 56
e 10 67
e 10 71
e 10 72
e 10 95
e 11 17
e 11 22
e 11 24
e 11 27
e 11 33
e 11 34
e 11 46
e 11 57
e 11 64
e 11 69
e 11 73
e 11 76
e 11 80
e 11 83
e 11 87
e 11 94
e 12 13
e 12 14
e 12 18
e 12 28
e 12 53
e 12 65
e 12 75
e 12 78
e 12 81
e 13 14
e 13 22
e 13 38
e 13 47
e 13 50
e 13 52
e 13 56
e 13 60
e 13 67
e 13 73
e 13 76
e 13 81
e 13 83
e 13 95
e 14 22
e 14 25
e 14 26
e 14 38
e 14 40
e 14 43
e 14 57
e 14 75
e 14 77
e 14 78
e 14 79
e 15 16
e 15 31
e 15 32
e 15 34
e 15 37
e 15 42
e 15 46
e 15 50
e 15 55
e 15 70
e 15 79
e 15 96
e 16 20
e 16 21
e 16 26
e 16 31
e 16 38
e 16 39
e 16 47
e 16 59
e 16 61
e 16 86
e 16 99
e 17 21
e 17 22
e 17 27
e 17 30
e 17 37
e 17 42
e 17 68
e 17 70
e 17 82
e 18 24
e 18 25
e 18 41
e 18 55
e 18 67
e 18 79
e 18 83
e 18 84
e 18 93
e 18 97
e 19 21
e 19 23
e 19 29
e 19 38
e 19 43
e 19 64
e 19 68
e 19 84
e 19 91
e 20 26
e 20 30
e 20 33
e 20 40
e 20 46
e 20 50
e 20 65
e 20 66
e 20 74
e 21 44
e 21 59
e 21 94
e 21 100
e 22 27
e 22 69
e 22 71
e 22 95
e 22 97
e 22 100
e 23 29
e 23 41
e 23 45
e 23 54
e 23 62
e 23 69
e 23 76
e 23 85
e 24 28
e 24 34
e 24 40
e 24 46
e 24 58
e 24 64
e 24 65
e 24 66
e 24 67
e 25 27
e 25 29
e 25 44
e 25 82
e 26 35
e 26 42
e 26 52
e 26 58
e 27 34
e 27 58
e 27 62
e 27 71
e 27 72
e 27 85
e 28 53
e 28 61
e 28 70
e 28 77
e 29 49
e 29 58
e 29 60
e 29 94
e 30 32
e 30 48
e 30 63
e 30 65
e 30 86
e 30 98
e 31 34
e 31 35
e 31 40
e 31 71
e 31 73
e 31 85
e 31 99
e 32 81
e 32 91
e 32 98
e 33 65
e 33 77
e 33 79
e 33 80
e 34 53
e 34 62
e 34 81
e 35 43
e 35 44
e 35 45
e 35 100
e 36 41
e 36 51
e 36 68
e 36 84
e 36 87
e 37 42
e 37 52
e 37 69
e 37 93
e 37 97
e 38 52
e 38 87
e 38 89
e 38 99
e 39 47
e 39 66
e 39 69
e 40 61
e 40 76
e 41 74
e 41 86
e 42 54
e 42 92
e 43 78
e 43 87
e 43 96
e 44 54
e 44 66
e 44 71
e 44 93
e 45 53
e 45 89
e 45 92
e 45 96
e 46 83
e 47 54
e 47 62
e 48 64
e 48 70
e 49 51
e 49 60
e 49 61
e 50 63
e 50 93
e 51 84
e 51 85
e 52 88
e 52 95
e 53 92
e 54 87
e 54 91
e 55 88
e 55 90
e 56 88
e 57 89
e 58 68
e 59 90
e 61 97
e 62 99
e 63 95
e 64 100
e 65 82
e 67 90
e 68 74
e 69 91
e 70 88
e 71 94
e 72 97
e 73 98
e 74 92
n 6 12
n 21 10
n 25 12
n 30 1
n 40 17
n 41 3
n 42 1
n 45 7
n 46 2
n 47 11
n 50 14
n 52 8
n 55 20
n 57 7
n 58 6
n 59 10
n 60 20
n 61 17
n 64 4
n 65 1
n 66 5
n 67 9
n 69 10
n 70 19
n 71 13
n 72 12
n 74 3
n 75 18
n 76 17
n 79 15
n 80 16
n 81 14
n 83 2
n 85 13
n 89 7
n 93 14
n 95 8
n 96 7
n 98 1
n 99 14
